6690
7427
8210
8820
9499
9935
10260
10387
10490
10573
10636
10690
10727
10750
10778
10786
10811
10844
10886
10927
10993
11034
11097
11160
11215
11276
11353
11419
11459
11489
11526
11556
11580
11630
11650
11669
11695
11711
11726
11743
11751
11790
11846
11896
11938
12018
12112
12206
12275
12291
12291
12291
12291
12291
12291
12291
12291
12291
12291
12291
12291
12291
12291
12291
12291
12291
12291
12291
12291
12291
12291
12291
12291
12291
12291
12291
12291
12291
12291
12291
12291
12291
12291
12291
12291
12291
12291
12291
12291
12291
12291
12291
12291
12291
12291
12291
12291
12291
12291
